
(set-logic HORN)
(declare-fun zero_65 () Int)
(declare-fun succ_64 (Int) Int)
(declare-datatypes ((Bool_186 0)) (((false_186) (true_186))))
(declare-fun diseqBool_81 (Bool_186 Bool_186) Bool)
(declare-fun isfalse_81 (Bool_186) Bool)
(declare-fun istrue_81 (Bool_186) Bool)
(assert (isfalse_81 false_186))
(assert (istrue_81 true_186))
(assert (diseqBool_81 false_186 true_186))
(assert (diseqBool_81 true_186 false_186))
(declare-fun and_186 (Bool_186 Bool_186 Bool_186) Bool)
(declare-fun or_189 (Bool_186 Bool_186 Bool_186) Bool)
(declare-fun hence_186 (Bool_186 Bool_186 Bool_186) Bool)
(declare-fun not_188 (Bool_186 Bool_186) Bool)
(assert (and_186 false_186 false_186 false_186))
(assert (and_186 false_186 true_186 false_186))
(assert (and_186 false_186 false_186 true_186))
(assert (and_186 true_186 true_186 true_186))
(assert (or_189 false_186 false_186 false_186))
(assert (or_189 true_186 true_186 false_186))
(assert (or_189 true_186 false_186 true_186))
(assert (or_189 true_186 true_186 true_186))
(assert (hence_186 true_186 false_186 false_186))
(assert (hence_186 false_186 true_186 false_186))
(assert (hence_186 true_186 false_186 true_186))
(assert (hence_186 true_186 true_186 true_186))
(assert (not_188 true_186 false_186))
(assert (not_188 false_186 true_186))
(declare-fun diseqInt (Int Int) Bool)
(declare-fun p_178 (Int Int) Bool)
(declare-fun iszero_64 (Int) Bool)
(declare-fun issucc_64 (Int) Bool)
(assert (forall ((x_27661 Int))
	(p_178 x_27661 (succ_64 x_27661))))
(assert (iszero_64 zero_65))
(assert (forall ((x_27663 Int))
	(issucc_64 (succ_64 x_27663))))
(assert (forall ((x_27664 Int))
	(diseqInt zero_65 (succ_64 x_27664))))
(assert (forall ((x_27665 Int))
	(diseqInt (succ_64 x_27665) zero_65)))
(assert (forall ((x_27666 Int) (x_27667 Int))
	(=> (diseqInt x_27666 x_27667) (diseqInt (succ_64 x_27666) (succ_64 x_27667)))))
(declare-datatypes ((list_131 0)) (((nil_145) (cons_131 (head_262 Int) (tail_262 list_131)))))
(declare-fun diseqlist_131 (list_131 list_131) Bool)
(declare-fun head_263 (Int list_131) Bool)
(declare-fun tail_263 (list_131 list_131) Bool)
(declare-fun isnil_145 (list_131) Bool)
(declare-fun iscons_131 (list_131) Bool)
(assert (forall ((x_27669 Int) (x_27670 list_131))
	(head_263 x_27669 (cons_131 x_27669 x_27670))))
(assert (forall ((x_27669 Int) (x_27670 list_131))
	(tail_263 x_27670 (cons_131 x_27669 x_27670))))
(assert (isnil_145 nil_145))
(assert (forall ((x_27672 Int) (x_27673 list_131))
	(iscons_131 (cons_131 x_27672 x_27673))))
(assert (forall ((x_27674 Int) (x_27675 list_131))
	(diseqlist_131 nil_145 (cons_131 x_27674 x_27675))))
(assert (forall ((x_27676 Int) (x_27677 list_131))
	(diseqlist_131 (cons_131 x_27676 x_27677) nil_145)))
(assert (forall ((x_27678 Int) (x_27679 list_131) (x_27680 Int) (x_27681 list_131))
	(=> (diseqInt x_27678 x_27680) (diseqlist_131 (cons_131 x_27678 x_27679) (cons_131 x_27680 x_27681)))))
(assert (forall ((x_27678 Int) (x_27679 list_131) (x_27680 Int) (x_27681 list_131))
	(=> (diseqlist_131 x_27679 x_27681) (diseqlist_131 (cons_131 x_27678 x_27679) (cons_131 x_27680 x_27681)))))
(declare-datatypes ((pair_52 0)) (((pair_53 (projpair_104 list_131) (projpair_105 list_131)))))
(declare-fun diseqpair_26 (pair_52 pair_52) Bool)
(declare-fun projpair_106 (list_131 pair_52) Bool)
(declare-fun projpair_107 (list_131 pair_52) Bool)
(declare-fun ispair_26 (pair_52) Bool)
(assert (forall ((x_27682 list_131) (x_27683 list_131))
	(projpair_106 x_27682 (pair_53 x_27682 x_27683))))
(assert (forall ((x_27682 list_131) (x_27683 list_131))
	(projpair_107 x_27683 (pair_53 x_27682 x_27683))))
(assert (forall ((x_27685 list_131) (x_27686 list_131))
	(ispair_26 (pair_53 x_27685 x_27686))))
(assert (forall ((x_27687 list_131) (x_27688 list_131) (x_27689 list_131) (x_27690 list_131))
	(=> (diseqlist_131 x_27687 x_27689) (diseqpair_26 (pair_53 x_27687 x_27688) (pair_53 x_27689 x_27690)))))
(assert (forall ((x_27687 list_131) (x_27688 list_131) (x_27689 list_131) (x_27690 list_131))
	(=> (diseqlist_131 x_27688 x_27690) (diseqpair_26 (pair_53 x_27687 x_27688) (pair_53 x_27689 x_27690)))))
(declare-fun take_27 (list_131 Int list_131) Bool)
(assert (forall ((x_27553 list_131) (z_1060 Int) (xs_347 list_131) (z_1059 Int))
	(=> (take_27 x_27553 z_1059 xs_347) (take_27 (cons_131 z_1060 x_27553) (succ_64 z_1059) (cons_131 z_1060 xs_347)))))
(assert (forall ((z_1059 Int))
	(take_27 nil_145 (succ_64 z_1059) nil_145)))
(assert (forall ((y_1107 list_131))
	(take_27 nil_145 zero_65 y_1107)))
(declare-fun plus_59 (Int Int Int) Bool)
(assert (forall ((x_27557 Int) (z_1061 Int) (y_1108 Int))
	(=> (plus_59 x_27557 z_1061 y_1108) (plus_59 (succ_64 x_27557) (succ_64 z_1061) y_1108))))
(assert (forall ((x_27558 Int))
	(plus_59 x_27558 zero_65 x_27558)))
(declare-fun times_13 (Int Int Int) Bool)
(assert (forall ((x_27559 Int) (x_27560 Int) (z_1062 Int) (y_1109 Int))
	(=> (and (times_13 x_27560 z_1062 y_1109) (plus_59 x_27559 y_1109 x_27560)) (times_13 x_27559 (succ_64 z_1062) y_1109))))
(assert (forall ((y_1109 Int))
	(times_13 zero_65 zero_65 y_1109)))
(declare-fun minus_191 (Int Int Int) Bool)
(assert (forall ((x_27563 Int) (y_1111 Int) (z_1063 Int))
	(=> (minus_191 x_27563 z_1063 y_1111) (minus_191 x_27563 (succ_64 z_1063) (succ_64 y_1111)))))
(assert (forall ((z_1063 Int))
	(minus_191 zero_65 (succ_64 z_1063) zero_65)))
(assert (forall ((y_1110 Int))
	(minus_191 zero_65 zero_65 y_1110)))
(declare-fun lt_195 (Bool_186 Int Int) Bool)
(assert (forall ((x_27567 Bool_186) (n_58 Int) (z_1064 Int))
	(=> (lt_195 x_27567 n_58 z_1064) (lt_195 x_27567 (succ_64 n_58) (succ_64 z_1064)))))
(assert (forall ((z_1064 Int))
	(lt_195 true_186 zero_65 (succ_64 z_1064))))
(assert (forall ((x_27522 Int))
	(lt_195 false_186 x_27522 zero_65)))
(declare-fun leq_24 (Bool_186 Int Int) Bool)
(assert (forall ((x_27571 Bool_186) (x_27524 Int) (z_1065 Int))
	(=> (leq_24 x_27571 z_1065 x_27524) (leq_24 x_27571 (succ_64 z_1065) (succ_64 x_27524)))))
(assert (forall ((z_1065 Int))
	(leq_24 false_186 (succ_64 z_1065) zero_65)))
(assert (forall ((y_1113 Int))
	(leq_24 true_186 zero_65 y_1113)))
(declare-fun sort_18 (list_131 Int Int) Bool)
(assert (forall ((x_27525 Int) (y_1114 Int))
	(=> (leq_24 true_186 x_27525 y_1114) (sort_18 (cons_131 x_27525 (cons_131 y_1114 nil_145)) x_27525 y_1114))))
(assert (forall ((x_27525 Int) (y_1114 Int))
	(=> (leq_24 false_186 x_27525 y_1114) (sort_18 (cons_131 y_1114 (cons_131 x_27525 nil_145)) x_27525 y_1114))))
(declare-fun length_15 (Int list_131) Bool)
(assert (forall ((x_27579 Int) (x_27580 Int) (y_1115 Int) (l_17 list_131))
	(=> (and (length_15 x_27580 l_17) (plus_59 x_27579 (succ_64 zero_65) x_27580)) (length_15 x_27579 (cons_131 y_1115 l_17)))))
(assert (length_15 zero_65 nil_145))
(declare-fun idiv_5 (Int Int Int) Bool)
(assert (forall ((x_27527 Int) (y_1116 Int))
	(=> (lt_195 true_186 x_27527 y_1116) (idiv_5 zero_65 x_27527 y_1116))))
(assert (forall ((x_27587 Int) (x_27588 Int) (x_27527 Int) (y_1116 Int))
	(=> (and (minus_191 x_27587 x_27527 y_1116) (idiv_5 x_27588 x_27587 y_1116) (lt_195 false_186 x_27527 y_1116)) (idiv_5 (succ_64 x_27588) x_27527 y_1116))))
(declare-fun drop_29 (list_131 Int list_131) Bool)
(assert (forall ((x_27589 list_131) (z_1067 Int) (xs_348 list_131) (z_1066 Int))
	(=> (drop_29 x_27589 z_1066 xs_348) (drop_29 x_27589 (succ_64 z_1066) (cons_131 z_1067 xs_348)))))
(assert (forall ((z_1066 Int))
	(drop_29 nil_145 (succ_64 z_1066) nil_145)))
(assert (forall ((x_27592 list_131))
	(drop_29 x_27592 zero_65 x_27592)))
(declare-fun splitAt_10 (pair_52 Int list_131) Bool)
(assert (forall ((x_27594 list_131) (x_27595 list_131) (x_27529 Int) (y_1118 list_131))
	(=> (and (take_27 x_27594 x_27529 y_1118) (drop_29 x_27595 x_27529 y_1118)) (splitAt_10 (pair_53 x_27594 x_27595) x_27529 y_1118))))
(declare-fun count_21 (Int Int list_131) Bool)
(assert (forall ((x_27596 Int) (x_27597 Int) (ys_109 list_131) (x_27530 Int))
	(=> (and (count_21 x_27597 x_27530 ys_109) (plus_59 x_27596 (succ_64 zero_65) x_27597)) (count_21 x_27596 x_27530 (cons_131 x_27530 ys_109)))))
(assert (forall ((x_27599 Int) (z_1068 Int) (ys_109 list_131) (x_27530 Int))
	(=> (and (diseqInt x_27530 z_1068) (count_21 x_27599 x_27530 ys_109)) (count_21 x_27599 x_27530 (cons_131 z_1068 ys_109)))))
(assert (forall ((x_27530 Int))
	(count_21 zero_65 x_27530 nil_145)))
(declare-fun x_27531 (list_131 list_131 list_131) Bool)
(assert (forall ((x_27603 list_131) (z_1069 Int) (xs_349 list_131) (y_1120 list_131))
	(=> (x_27531 x_27603 xs_349 y_1120) (x_27531 (cons_131 z_1069 x_27603) (cons_131 z_1069 xs_349) y_1120))))
(assert (forall ((x_27604 list_131))
	(x_27531 x_27604 nil_145 x_27604)))
(declare-fun stoogesort_21 (list_131 list_131) Bool)
(declare-fun stoogesort_22 (list_131 list_131) Bool)
(declare-fun stoogesort_23 (list_131 list_131) Bool)
(assert (forall ((x_27609 list_131) (x_27610 list_131) (x_27605 Int) (x_27606 Int) (x_27607 Int) (ys_110 list_131) (zs_32 list_131) (x_27533 list_131))
	(=> (and (stoogesort_22 x_27610 ys_110) (x_27531 x_27609 x_27610 zs_32) (length_15 x_27605 x_27533) (times_13 x_27606 (succ_64 (succ_64 zero_65)) x_27605) (idiv_5 x_27607 (succ_64 x_27606) (succ_64 (succ_64 (succ_64 zero_65)))) (splitAt_10 (pair_53 ys_110 zs_32) x_27607 x_27533)) (stoogesort_21 x_27609 x_27533))))
(assert (forall ((x_27612 list_131) (x_27613 list_131) (x_27614 list_131) (x_27536 Int) (x_27537 list_131) (y_1122 Int) (y_1121 Int))
	(=> (and (stoogesort_21 x_27613 (cons_131 y_1121 (cons_131 y_1122 (cons_131 x_27536 x_27537)))) (stoogesort_23 x_27614 x_27613) (stoogesort_21 x_27612 x_27614)) (stoogesort_22 x_27612 (cons_131 y_1121 (cons_131 y_1122 (cons_131 x_27536 x_27537)))))))
(assert (forall ((x_27616 list_131) (y_1122 Int) (y_1121 Int))
	(=> (sort_18 x_27616 y_1121 y_1122) (stoogesort_22 x_27616 (cons_131 y_1121 (cons_131 y_1122 nil_145))))))
(assert (forall ((y_1121 Int))
	(stoogesort_22 (cons_131 y_1121 nil_145) (cons_131 y_1121 nil_145))))
(assert (stoogesort_22 nil_145 nil_145))
(assert (forall ((x_27623 list_131) (x_27624 list_131) (x_27620 Int) (x_27621 Int) (ys_111 list_131) (zs_33 list_131) (x_27538 list_131))
	(=> (and (stoogesort_22 x_27624 zs_33) (x_27531 x_27623 ys_111 x_27624) (length_15 x_27620 x_27538) (idiv_5 x_27621 x_27620 (succ_64 (succ_64 (succ_64 zero_65)))) (splitAt_10 (pair_53 ys_111 zs_33) x_27621 x_27538)) (stoogesort_23 x_27623 x_27538))))
(assert (forall ((x_27626 Int) (x_27627 Int) (x_27628 Int) (x_27629 Int) (x_27539 Int) (y_1123 Int) (z_1071 Int))
	(=> (and true (diseqInt x_27627 x_27629) (times_13 x_27626 y_1123 z_1071) (times_13 x_27627 x_27539 x_27626) (times_13 x_27628 x_27539 y_1123) (times_13 x_27629 x_27628 z_1071)) false)))
(assert (forall ((x_27630 Int) (x_27631 Int) (x_27632 Int) (x_27633 Int) (x_27540 Int) (y_1124 Int) (z_1072 Int))
	(=> (and true (diseqInt x_27631 x_27633) (plus_59 x_27630 y_1124 z_1072) (plus_59 x_27631 x_27540 x_27630) (plus_59 x_27632 x_27540 y_1124) (plus_59 x_27633 x_27632 z_1072)) false)))
(assert (forall ((x_27634 Int) (x_27635 Int) (x_27541 Int) (y_1125 Int))
	(=> (and true (diseqInt x_27634 x_27635) (times_13 x_27634 x_27541 y_1125) (times_13 x_27635 y_1125 x_27541)) false)))
(assert (forall ((x_27636 Int) (x_27637 Int) (x_27542 Int) (y_1126 Int))
	(=> (and true (diseqInt x_27636 x_27637) (plus_59 x_27636 x_27542 y_1126) (plus_59 x_27637 y_1126 x_27542)) false)))
(assert (forall ((x_27638 Int) (x_27639 Int) (x_27640 Int) (x_27641 Int) (x_27642 Int) (x_27543 Int) (y_1127 Int) (z_1073 Int))
	(=> (and true (diseqInt x_27639 x_27642) (plus_59 x_27638 y_1127 z_1073) (times_13 x_27639 x_27543 x_27638) (times_13 x_27640 x_27543 y_1127) (times_13 x_27641 x_27543 z_1073) (plus_59 x_27642 x_27640 x_27641)) false)))
(assert (forall ((x_27643 Int) (x_27644 Int) (x_27645 Int) (x_27646 Int) (x_27647 Int) (x_27544 Int) (y_1128 Int) (z_1074 Int))
	(=> (and true (diseqInt x_27644 x_27647) (plus_59 x_27643 x_27544 y_1128) (times_13 x_27644 x_27643 z_1074) (times_13 x_27645 x_27544 z_1074) (times_13 x_27646 y_1128 z_1074) (plus_59 x_27647 x_27645 x_27646)) false)))
(assert (forall ((x_27648 Int) (x_27545 Int))
	(=> (and true (diseqInt x_27648 x_27545) (times_13 x_27648 x_27545 (succ_64 zero_65))) false)))
(assert (forall ((x_27649 Int) (x_27546 Int))
	(=> (and true (diseqInt x_27649 x_27546) (times_13 x_27649 (succ_64 zero_65) x_27546)) false)))
(assert (forall ((x_27650 Int) (x_27547 Int))
	(=> (and true (diseqInt x_27650 x_27547) (plus_59 x_27650 x_27547 zero_65)) false)))
(assert (forall ((x_27651 Int) (x_27548 Int))
	(=> (and true (diseqInt x_27651 x_27548) (plus_59 x_27651 zero_65 x_27548)) false)))
(assert (forall ((x_27652 Int) (x_27549 Int))
	(=> (and true (diseqInt x_27652 zero_65) (times_13 x_27652 x_27549 zero_65)) false)))
(assert (forall ((x_27653 Int) (x_27550 Int))
	(=> (and true (diseqInt x_27653 zero_65) (times_13 x_27653 zero_65 x_27550)) false)))
(assert (forall ((x_27654 list_131) (x_27655 Int) (x_27656 Int) (x_27551 Int) (xs_350 list_131))
	(=> (and true (diseqInt x_27655 x_27656) (stoogesort_22 x_27654 xs_350) (count_21 x_27655 x_27551 x_27654) (count_21 x_27656 x_27551 xs_350)) false)))
(check-sat)
